instances/shortest_path/discrete/shortest_path_3_7.lp
\ Model nohadani_3_7
\ LP format - for model browsing. Use MPS format to capture full model detail.
\ Signature: 0xf9a0f44b955a6a9b
Minimize
  34.66987164671943 y[0,1] + 59.64059020499378 y[0,2]
   + 34.66987164671943 y[1,0] + 25 y[1,2] + 59.64059020499378 y[2,0]
   + 25 y[2,1] + x[0,1] + x[0,2] + x[1,0] + x[1,2] + x[2,0] + x[2,1]
   + 3.466987164671943 r[0,1] + 5.964059020499378 r[0,2]
   + 3.466987164671943 r[1,0] + 2.5 r[1,2] + 5.964059020499378 r[2,0]
   + 2.5 r[2,1]
Subject To
 flow_cons_inner_nodes[1]: y[0,1] - y[1,0] - y[1,2] + y[2,1] = 0
 flow_cons_source: y[0,1] + y[0,2] - y[1,0] - y[2,0] = 1
 flow_cons_target: y[0,2] + y[1,2] - y[2,0] - y[2,1] = 1
 primal_lower: 13.80979074989554 x[0,1] + 1.617440737796471 x[0,2]
   + 3.237482366321325 x[1,0] + 6.717261073855866 x[1,2]
   + 12.75069913021639 x[2,0] + 14.41919475517861 x[2,1] + 62 u[0,1]
   + 55 u[0,2] + 97 u[1,0] + 70 u[1,2] + 79 u[2,0] + 4 u[2,1] <= 97
 mccormick1[0,1]: - u[0,1] + r[0,1] <= 0
 mccormick1[0,2]: - u[0,2] + r[0,2] <= 0
 mccormick1[1,0]: - u[1,0] + r[1,0] <= 0
 mccormick1[1,2]: - u[1,2] + r[1,2] <= 0
 mccormick1[2,0]: - u[2,0] + r[2,0] <= 0
 mccormick1[2,1]: - u[2,1] + r[2,1] <= 0
 mccormick2[0,1]: - y[0,1] + r[0,1] <= 0
 mccormick2[0,2]: - y[0,2] + r[0,2] <= 0
 mccormick2[1,0]: - y[1,0] + r[1,0] <= 0
 mccormick2[1,2]: - y[1,2] + r[1,2] <= 0
 mccormick2[2,0]: - y[2,0] + r[2,0] <= 0
 mccormick2[2,1]: - y[2,1] + r[2,1] <= 0
 mccormick3[0,1]: - y[0,1] - u[0,1] + r[0,1] >= -1
 mccormick3[0,2]: - y[0,2] - u[0,2] + r[0,2] >= -1
 mccormick3[1,0]: - y[1,0] - u[1,0] + r[1,0] >= -1
 mccormick3[1,2]: - y[1,2] - u[1,2] + r[1,2] >= -1
 mccormick3[2,0]: - y[2,0] - u[2,0] + r[2,0] >= -1
 mccormick3[2,1]: - y[2,1] - u[2,1] + r[2,1] >= -1
Bounds
Binaries
 y[0,1] y[0,2] y[1,0] y[1,2] y[2,0] y[2,1] x[0,1] x[0,2] x[1,0] x[1,2]
 x[2,0] x[2,1] u[0,1] u[0,2] u[1,0] u[1,2] u[2,0] u[2,1] r[0,1] r[0,2]
 r[1,0] r[1,2] r[2,0] r[2,1]
End
