instances/shortest_path/discrete/shortest_path_3_7.kp
52227
97

[13.809790749895544 1.617440737796471 3.237482366321325 6.717261073855866 12.750699130216391 14.419194755178612]

[62 55 97 70 79 4]
